* #variable= 28 #constraint= 3 
+1 x1 -1 x15 +2 x2 -2 x16 +4 x3 -4 x17 +8 x4 -8 x18 +16 x5 -16 x19 +32 x6 -32 x20 +64 x7 -64 x21 +128 x8 -128 x22 +256 x9 -256 x23 +512 x10 -512 x24 +1024 x11 -1024 x25 +2048 x12 -2048 x26 +4096 x13 -4096 x27 +8192 x14 -8192 x28 = 0 ;
-1 x1 -1 x15 >= -1; 
+1 x1 +1 x15 >= 1; 
